
Gurobi 9.1.1 (linux64) logging started Tue Oct 19 11:58:18 2021

Changed value of parameter LogFile to results/max2cut_numv160/max2cut_numv160_i160-114_peel_decompose_weighted_BQO_log.txt
   Prev:   Default: 
Gurobi Optimizer version 9.1.1 build v9.1.1rc0 (linux64)
Thread count: 20 physical cores, 40 logical processors, using up to 10 threads
Optimize a model with 160 rows, 320 columns and 320 nonzeros
Model fingerprint: 0x1a6ed0cb
Model has 1944 quadratic objective terms
Variable types: 0 continuous, 320 integer (320 binary)
Coefficient statistics:
  Matrix range     [1e+00, 1e+00]
  Objective range  [8e+01, 8e+01]
  QObjective range [2e+02, 6e+02]
  Bounds range     [1e+00, 1e+00]
  RHS range        [1e+00, 1e+00]
Found heuristic solution: objective -0.0000000
Presolve removed 160 rows and 161 columns
Presolve time: 0.00s
Presolved: 797 rows, 956 columns, 2391 nonzeros
Variable types: 0 continuous, 956 integer (956 binary)

Root relaxation: objective -9.135100e+04, 121 iterations, 0.00 seconds

    Nodes    |    Current Node    |     Objective Bounds      |     Work
 Expl Unexpl |  Obj  Depth IntInf | Incumbent    BestBd   Gap | It/Node Time

     0     0 91351.0000    0  159   -0.00000 91351.0000      -     -    0s
H    0     0                    48445.000000 91351.0000  88.6%     -    0s
H    0     0                    57847.000000 91351.0000  57.9%     -    0s
H    0     0                    58734.000000 91351.0000  55.5%     -    0s
H    0     0                    60757.000000 91351.0000  50.4%     -    0s
H    0     0                    62425.000000 89357.5000  43.1%     -    0s
     0     0 81321.0000    0  254 62425.0000 81321.0000  30.3%     -    0s
H    0     0                    62433.000000 81321.0000  30.3%     -    0s
     0     0 79273.5000    0  279 62433.0000 79273.5000  27.0%     -    0s
     0     0 79273.5000    0  279 62433.0000 79273.5000  27.0%     -    0s
     0     2 79249.5000    0  279 62433.0000 79249.5000  26.9%     -    0s
H   78    95                    62902.000000 77084.6667  22.5%   109    0s
H  150   171                    63073.000000 77084.6667  22.2%  83.5    0s
H  153   171                    63170.000000 77084.6667  22.0%  83.7    0s
H  158   171                    63420.000000 77084.6667  21.5%  83.6    0s
H  210   228                    63604.000000 77084.6667  21.2%  77.9    0s
H  215   228                    63639.000000 77084.6667  21.1%  78.7    0s
H  276   305                    63832.000000 77084.6667  20.8%  75.6    0s
H  282   305                    63846.000000 77084.6667  20.7%  75.7    0s
H  370   373                    63942.000000 77084.6667  20.6%  67.7    0s
H  372   373                    64030.000000 77084.6667  20.4%  67.8    0s
*  380   373              45    65751.000000 77084.6667  17.2%  67.7    0s
H  453   431                    65791.000000 77084.6667  17.2%  63.6    0s
H  460   431                    65905.000000 77084.6667  17.0%  63.1    0s
H  482   431                    65912.000000 77084.6667  17.0%  63.3    0s
H  527   483                    66532.000000 77084.6667  15.9%  63.0    0s
H  594   521                    67074.000000 77084.6667  14.9%  60.9    1s

Cutting planes:
  Gomory: 38
  MIR: 53
  Flow cover: 7
  Zero half: 345
  RLT: 71
  BQP: 3

Explored 1721 nodes (105188 simplex iterations) in 5.01 seconds
Thread count was 10 (of 40 available processors)

Solution count 10: 67074 66532 65912 ... 63832

Time limit reached
Best objective 6.707400000000e+04, best bound 7.277400000000e+04, gap 8.4981%
